NAME : in_house_8_1
TYPE : TSP
DIMENSION : 8
EDGE_WEIGHT_TYPE : EXPLICIT
EDGE_WEIGHT_FORMAT : UPPER_ROW
COMMENT : INVERSION_SHIFT=3
EDGE_WEIGHT_SECTION
10
18
63
38
46
17
55
52
46
57
32
56
50
49
52
62
7
12
46
20
34
37
50
10
58
29
37
17
